122 5
10 10 10 10 10 

0 0 0 0 0 0 5 2 14 26 38 50 
0 0 0 0 0 0 2 3 6 
10 1 0 0 0 0 1 4 
3 3 0 0 0 0 2 9 5 
3 2 0 0 0 0 2 7 22 
5 2 0 0 0 0 1 7 
8 2 0 0 0 0 1 8 
8 2 0 0 0 0 2 12 10 
8 1 0 0 0 0 2 12 10 
10 4 0 0 0 0 1 11 
4 6 0 0 0 0 1 13 
6 2 0 0 0 0 1 13 
0 0 0 0 0 0 1 62 
0 0 0 0 0 0 1 15 
8 0 1 0 0 0 3 20 18 16 
7 0 2 0 0 0 1 17 
1 0 3 0 0 0 1 19 
7 0 1 0 0 0 1 19 
1 0 3 0 0 0 1 21 
10 0 2 0 0 0 1 21 
3 0 2 0 0 0 1 22 
10 0 4 0 0 0 2 24 23 
9 0 3 0 0 0 2 25 82 
9 0 4 0 0 0 1 25 
0 0 0 0 0 0 1 62 
0 0 0 0 0 0 3 27 30 36 
10 0 1 0 0 0 1 28 
2 0 2 0 0 0 1 29 
2 0 2 0 0 0 2 31 40 
7 0 3 0 0 0 1 31 
3 0 2 0 0 0 1 32 
7 0 3 0 0 0 2 35 33 
4 0 3 0 0 0 1 34 
4 0 2 0 0 0 1 37 
4 0 6 0 0 0 1 37 
10 0 1 0 0 0 1 37 
0 0 0 0 0 0 1 62 
0 0 0 0 0 0 2 39 43 
9 0 1 0 0 0 2 42 40 
5 0 4 0 0 0 1 41 
4 0 4 0 0 0 2 47 44 
8 0 4 0 0 0 2 47 46 
3 0 3 0 0 0 3 47 46 59 
3 0 1 0 0 0 1 45 
7 0 2 0 0 0 1 46 
7 0 3 0 0 0 1 48 
2 0 2 0 0 0 1 48 
5 0 1 0 0 0 1 49 
0 0 0 0 0 0 1 62 
0 0 0 0 0 0 3 51 54 73 
8 1 0 0 0 0 2 56 52 
4 4 0 0 0 0 1 53 
5 6 0 0 0 0 2 57 55 
5 2 0 0 0 0 2 58 56 
1 2 0 0 0 0 1 58 
4 3 0 0 0 0 1 57 
4 3 0 0 0 0 1 59 
1 1 0 0 0 0 1 59 
4 2 0 0 0 0 1 60 
1 1 0 0 0 0 1 61 
0 0 0 0 0 0 1 62 
0 0 0 0 0 0 2 63 75 
0 0 0 0 0 0 3 64 65 67 
9 0 1 0 0 0 1 66 
2 0 4 0 0 0 2 66 80 
1 0 3 0 0 0 2 71 68 
2 0 2 0 0 0 2 71 70 
8 0 3 0 0 0 1 69 
7 0 1 0 0 0 1 70 
8 0 3 0 0 0 1 72 
5 0 3 0 0 0 1 72 
7 0 3 0 0 0 1 73 
6 0 2 0 0 0 1 74 
0 0 0 0 0 0 1 87 
0 0 0 0 0 0 2 76 78 
2 0 0 1 0 0 3 81 80 77 
8 0 0 1 0 0 1 79 
9 0 0 1 0 0 1 79 
10 0 0 5 0 0 1 82 
6 0 0 2 0 0 1 82 
6 0 0 1 0 0 1 82 
10 0 0 4 0 0 1 83 
4 0 0 3 0 0 1 84 
10 0 0 3 0 0 1 85 
7 0 0 4 0 0 1 86 
0 0 0 0 0 0 1 87 
0 0 0 0 0 0 2 88 90 
5 1 0 0 0 0 1 89 
9 3 0 0 0 0 2 92 91 
3 3 0 0 0 0 2 92 91 
7 1 0 0 0 0 1 93 
1 2 0 0 0 0 1 93 
3 4 0 0 0 0 2 95 94 
1 4 0 0 0 0 1 96 
2 3 0 0 0 0 1 96 
1 1 0 0 0 0 1 97 
2 3 0 0 0 0 1 98 
0 0 0 0 0 0 1 99 
0 0 0 0 0 0 1 100 
9 0 0 0 1 0 2 104 101 
5 0 0 0 1 0 1 102 
10 0 0 0 5 0 2 105 103 
10 0 0 0 2 0 1 106 
1 0 0 0 2 0 1 105 
5 0 0 0 4 0 2 109 107 
1 0 0 0 4 0 2 109 107 
9 0 0 0 1 0 1 108 
1 0 0 0 1 0 1 110 
2 0 0 0 4 0 1 110 
0 0 0 0 0 0 1 111 
0 0 0 0 0 0 2 112 113 
3 1 0 0 0 0 3 117 116 114 
5 2 0 0 0 0 2 116 115 
4 2 0 0 0 0 1 115 
7 3 0 0 0 0 1 118 
5 6 0 0 0 0 1 118 
4 1 0 0 0 0 1 118 
2 1 0 0 0 0 1 119 
5 2 0 0 0 0 1 120 
4 4 0 0 0 0 1 121 
3 3 0 0 0 0 1 122 
0 0 0 0 0 0 0 
